benchmarks_vrp/att48_1.vrp
NAME: att48_1
TYPE: CVRP
COMMENT: (Rinaldi,Yarrow/Araque) - Cluster Nr.1
DIMENSION: 8
CAPACITY: 15
EDGE_WEIGHT_TYPE: ATT
NODE_COORD_TYPE: TWOD_COORDS
NODE_COORD_SECTION: 
3 8304 8580
5 6929 8958
6 7096 7869
4 6823 4674
8 8139 8306
7 7576 7065
1 6469 8971
2 6336 7348
DEPOT_SECTION: 
4
-1
DEMAND_SECTION: 
7 1
2 1
3 1
5 1
1 1
8 1
6 1
4 0
EOF
