benchmarks_vrp/att48_1.tour
NAME: att48_1 solution
TYPE: TOUR
TOUR_SECTION:
4 2 6 1 5 3 8 7 -1
-1
EOF